%chk=h2.chk
# opt=modredundant b3lyp/6-31g geom=connectivity

Title Card Required

0 1
 H                 -0.23544303    0.08860759    0.00000000
 H                 -0.83544303    0.08860759    0.00000000

 1 2 1.0
 2

B 2 1 S 50 0.010000

