%chk=hcn-f.chk
# freq b3lyp/6-31g geom=connectivity

Title Card Required

0 1
 C                 -2.70886073    0.16455696    0.00000000
 H                 -3.77886073    0.16455696    0.00000001
 N                 -1.56226073    0.16455696   -0.00000001

 1 2 1.0 3 3.0
 2
 3

