%chk=ts.chk
# opt=(calcall,ts,maxcycle=100) freq b3lyp/6-31g geom=connectivity

Title Card Required

0 1
 C                  0.06598175    0.62237004    0.00000000
 H                 -0.85776280    0.08904586    0.00000000
 N                  0.06598175   -0.54618087   -0.00000000

 1 3 3.0
 2
 3

